
Gurobi 7.0.2 (linux64, Matlab) logging started Sun Sep  2 08:35:11 2018


Gurobi 7.0.2 (linux64) logging started Sun Sep  2 08:35:11 2018

Optimize a model with 372920 rows, 714190 columns and 36457110 nonzeros
Coefficient statistics:
  Matrix range     [2e-02, 4e+02]
  Objective range  [1e-03, 1e+01]
  Bounds range     [2e+01, 2e+06]
  RHS range        [3e+00, 1e+06]
Iteration    Objective       Primal Inf.    Dual Inf.      Time
       0    2.1113090e+07   0.000000e+00   0.000000e+00      1s

Solved in 0 iterations and 1.41 seconds
Optimal objective  2.111309010e+07
